(declare-rel fail ())
(declare-rel inv2 (Int Int Int Int Int))
(declare-var A Int)
(declare-var B Int)
(declare-var C Int)
(declare-var D Int)
(declare-var E Int)
(declare-var F Int)
(declare-var G Int)
(declare-var H Int)
(rule (=> (and (= 2500 B) (= 10 A)) (inv2 0 0 0 B A)))
(rule (let ((a!1 (and (inv2 F C H B A)
                (= D (+ F 1))
                (= G (ite (= F 0) 523 (+ C H)))
                (= E (ite (= F 0) H 250)))))
  (=> a!1 (inv2 D G E B A))))
(rule (=> (and (inv2 F C H B A) (>= F A) (not (> C B))) fail))
(query fail)

